TCS_Benchmarks/redos_fix/snort1_output_distinct_2380_2379_184_0.txt
[^\n\r]*
([^\n\r]*)([sS][eE][cC][oO][nN][dD][sS]\-[^\n\r]*\|\d+\-)([^\n\r]*)
[^\n\r]*